NAME : single
TYPE : ATSP
DIMENSION : 6
EDGE_WEIGHT_TYPE : EXPLICIT
EDGE_WEIGHT_FORMAT : FULL_MATRIX
EDGE_WEIGHT_SECTION
0 480 387 488 435 510 
0 0 149 100 79 161 
0 149 0 122 70 126 
0 100 122 0 77 108 
0 79 70 77 0 91 
0 161 126 108 91 0 
EOF